db/data/205683057510674780826856310861495414576.z3.out
-------------------
2502.606773625
